NAME: bip_40_5
TYPE: TSP
COMMENT: bip_40_5
DIMENSION: 40
EDGE_WEIGHT_TYPE: EUC_2D
NODE_COORD_SECTION
1 47 22
2 10 54
3 79 77
4 99 52
5 12 79
6 71 5
7 57 82
8 18 70
9 21 28
10 37 36
11 63 51
12 71 69
13 6 15
14 89 95
15 55 16
16 21 79
17 37 22
18 36 12
19 13 7
20 94 29
21 416 454
22 438 472
23 407 443
24 408 497
25 487 434
26 453 431
27 405 474
28 437 484
29 473 485
30 471 471
31 420 478
32 463 424
33 487 460
34 403 438
35 459 440
36 404 490
37 465 497
38 455 487
39 401 460
40 439 457
